\ Model Hospital NetwORk
\ LP format - for model browsing. Use MPS format to capture full model detail.
Minimize
  100 y_h1_1 + 200 y_h1_2 + 300 y_h1_3 + 90 y_h2_1 + 100 y_h2_2 + 250 y_h2_3
   + 50 y_h3_1 + 250 y_h3_2 + 300 y_h3_3 + 180 y_h4_1 + 200 y_h4_2
   + 480 y_h4_3 + 200 y_h5_1 + 300 y_h5_2 + 400 y_h5_3 - 100 Constant
Subject To
 R0: x_h1_c1 + x_h2_c1 + x_h5_c1 = 1
 R1: x_h1_c2 + x_h2_c2 + x_h4_c2 + x_h5_c2 = 1
 R2: x_h1_c3 + x_h2_c3 + x_h3_c3 + x_h5_c3 = 1
 R3: x_h1_c4 + x_h2_c4 + x_h3_c4 + x_h5_c4 = 1
 R4: x_h1_c5 + x_h2_c5 + x_h3_c5 + x_h5_c5 = 1
 R5: x_h4_c6 + x_h5_c6 = 1
 R6: x_h2_c7 + x_h4_c7 + x_h5_c7 = 1
 R7: x_h4_c8 = 1
 R8: 7.071067811865476 x_h1_c1 - 20 y_h1_1 - 20 y_h1_2 - 30 y_h1_3 <= 0
 R9: 25 x_h1_c2 - 20 y_h1_1 - 20 y_h1_2 - 30 y_h1_3 <= 0
 R10: 11.18033988749895 x_h1_c3 - 20 y_h1_1 - 20 y_h1_2 - 30 y_h1_3 <= 0
 R11: 11.18033988749895 x_h1_c4 - 20 y_h1_1 - 20 y_h1_2 - 30 y_h1_3 <= 0
 R12: 15.8113883008419 x_h1_c5 - 20 y_h1_1 - 20 y_h1_2 - 30 y_h1_3 <= 0
 R13: x_h1_c1 + x_h1_c2 + x_h1_c3 + x_h1_c4 + x_h1_c5 - y_h1_1 - 2 y_h1_2
   - 3 y_h1_3 <= 0
 R14: x_h1_c1 - y_h1_2 - y_h1_3 <= 0
 R15: x_h1_c3 - y_h1_2 - y_h1_3 <= 0
 R16: y_h1_1 + y_h1_2 + y_h1_3 <= 1
 R17: 7.071067811865476 x_h2_c1 - 20 y_h2_1 - 20 y_h2_2 - 30 y_h2_3 <= 0
 R18: 15 x_h2_c2 - 20 y_h2_1 - 20 y_h2_2 - 30 y_h2_3 <= 0
 R19: 5 x_h2_c3 - 20 y_h2_1 - 20 y_h2_2 - 30 y_h2_3 <= 0
 R20: 11.18033988749895 x_h2_c4 - 20 y_h2_1 - 20 y_h2_2 - 30 y_h2_3 <= 0
 R21: 15.8113883008419 x_h2_c5 - 20 y_h2_1 - 20 y_h2_2 - 30 y_h2_3 <= 0
 R22: 28.2842712474619 x_h2_c7 - 20 y_h2_1 - 20 y_h2_2 - 30 y_h2_3 <= 0
 R23: x_h2_c1 + x_h2_c2 + x_h2_c3 + x_h2_c4 + x_h2_c5 + x_h2_c7 - y_h2_1
   - 3 y_h2_2 - 4 y_h2_3 <= 0
 R24: x_h2_c1 - y_h2_2 - y_h2_3 <= 0
 R25: x_h2_c3 - y_h2_2 - y_h2_3 <= 0
 R26: y_h2_1 + y_h2_2 + y_h2_3 <= 1
 R27: 26.92582403567252 x_h3_c3 - 20 y_h3_1 - 20 y_h3_2 - 30 y_h3_3 <= 0
 R28: 20.6155281280883 x_h3_c4 - 20 y_h3_1 - 20 y_h3_2 - 30 y_h3_3 <= 0
 R29: 15.8113883008419 x_h3_c5 - 20 y_h3_1 - 20 y_h3_2 - 30 y_h3_3 <= 0
 R30: x_h3_c3 + x_h3_c4 + x_h3_c5 - y_h3_1 - 2 y_h3_2 - 3 y_h3_3 <= 0
 R31: x_h3_c3 - y_h3_2 - y_h3_3 <= 0
 R32: y_h3_1 + y_h3_2 + y_h3_3 <= 1
 R33: 15 x_h4_c2 - 20 y_h4_1 - 20 y_h4_2 - 30 y_h4_3 <= 0
 R34: 10 x_h4_c6 - 20 y_h4_1 - 20 y_h4_2 - 30 y_h4_3 <= 0
 R35: 22.3606797749979 x_h4_c7 - 20 y_h4_1 - 20 y_h4_2 - 30 y_h4_3 <= 0
 R36: 25 x_h4_c8 - 20 y_h4_1 - 20 y_h4_2 - 30 y_h4_3 <= 0
 R37: x_h4_c2 + x_h4_c6 + x_h4_c7 + x_h4_c8 - 2 y_h4_1 - 2 y_h4_2
   - 3 y_h4_3 <= 0
 R38: x_h4_c6 - y_h4_2 - y_h4_3 <= 0
 R39: y_h4_1 + y_h4_2 + y_h4_3 <= 1
 R40: 21.21320343559643 x_h5_c1 - 20 y_h5_1 - 20 y_h5_2 - 30 y_h5_3 <= 0
 R41: 11.18033988749895 x_h5_c2 - 20 y_h5_1 - 20 y_h5_2 - 30 y_h5_3 <= 0
 R42: 11.18033988749895 x_h5_c3 - 20 y_h5_1 - 20 y_h5_2 - 30 y_h5_3 <= 0
 R43: 15 x_h5_c4 - 20 y_h5_1 - 20 y_h5_2 - 30 y_h5_3 <= 0
 R44: 15.8113883008419 x_h5_c5 - 20 y_h5_1 - 20 y_h5_2 - 30 y_h5_3 <= 0
 R45: 20 x_h5_c6 - 20 y_h5_1 - 20 y_h5_2 - 30 y_h5_3 <= 0
 R46: 14.14213562373095 x_h5_c7 - 20 y_h5_1 - 20 y_h5_2 - 30 y_h5_3 <= 0
 R47: x_h5_c1 + x_h5_c2 + x_h5_c3 + x_h5_c4 + x_h5_c5 + x_h5_c6 + x_h5_c7
   - y_h5_1 - 2 y_h5_2 - 3 y_h5_3 <= 0
 R48: x_h5_c1 - y_h5_2 - y_h5_3 <= 0
 R49: x_h5_c3 - y_h5_2 - y_h5_3 <= 0
 R50: x_h5_c6 - y_h5_2 - y_h5_3 <= 0
 R51: y_h5_1 + y_h5_2 + y_h5_3 <= 1
Bounds
 Constant = 1
Binaries
 x_h1_c1 x_h1_c2 x_h1_c3 x_h1_c4 x_h1_c5 x_h2_c1 x_h2_c2 x_h2_c3 x_h2_c4
 x_h2_c5 x_h2_c7 x_h3_c3 x_h3_c4 x_h3_c5 x_h4_c2 x_h4_c6 x_h4_c7 x_h4_c8
 x_h5_c1 x_h5_c2 x_h5_c3 x_h5_c4 x_h5_c5 x_h5_c6 x_h5_c7 y_h1_1 y_h1_2
 y_h1_3 y_h2_1 y_h2_2 y_h2_3 y_h3_1 y_h3_2 y_h3_3 y_h4_1 y_h4_2 y_h4_3
 y_h5_1 y_h5_2 y_h5_3
End
